HUN,8,6,627
2,1,5,30,4,22,0,4,1,25,3,10
5,19,2,5,1,22,3,27,4,20,0,29
4,2,5,6,1,22,3,1,0,8,2,26
0,23,5,12,4,3,2,23,3,12,1,3
1,29,4,15,0,15,2,8,5,10,3,20
1,23,5,8,0,9,4,22,2,6,3,27
3,11,4,27,5,17,2,28,0,17,1,19
5,13,0,16,4,9,3,19,2,26,1,13
